examples/inputs/input5.dzn
n = 11;
l = 15;
s = 11;
r = 15;
f = 20;
forbidden = [| 4, 4
	| 5, 11
	| 6, 8
	| 8, 3
	| 3, 1
	| 2, 3
	| 9, 1
	| 10, 1
	| 6, 3
	| 8, 10
	| 11, 8
	| 3, 2
	| 11, 6
	| 4, 9
	| 1, 8
	| 6, 2
	| 9, 6
	| 5, 9
	| 2, 4
	| 1, 9
	|];