examples/inputs/input5.lp
#const n = 11.
#const l = 15.
#const s = 11.
#const r = 15.
#const f = 20.
val(4, 4, xxx).
val(5, 11, xxx).
val(6, 8, xxx).
val(8, 3, xxx).
val(3, 1, xxx).
val(2, 3, xxx).
val(9, 1, xxx).
val(10, 1, xxx).
val(6, 3, xxx).
val(8, 10, xxx).
val(11, 8, xxx).
val(3, 2, xxx).
val(11, 6, xxx).
val(4, 9, xxx).
val(1, 8, xxx).
val(6, 2, xxx).
val(9, 6, xxx).
val(5, 9, xxx).
val(2, 4, xxx).
val(1, 9, xxx).